data;
param nombreJob := 7;
param nombreRessource := 3;
param duree := 1 1 2 1 3 6 4 7 5 4 6 9 7 9;
param capaciteRessource := 1 6 2 14 3 14;
param besoinRessource : 1 2 3 :=
                    1   2 1 5
                    2   2 2 9
                    3   1 6 7
                    4   1 2 4
                    5   1 5 5
                    6   4 4 9
                    7   1 4 6;
end;

